SCIP Status        : solving was interrupted [time limit reached]
Total Time         :    3599.97
  solving          :    3599.97
  presolving       :       0.45 (included in solving)
  reading          :       0.00
  copying          :       2.36 (48 #copies) (minimal 0.00, maximal 0.13, average 0.05)
Original Problem   :
  Problem name     : bbbenchmark/g05_100.6.cut
  Variables        : 101 (100 binary, 0 integer, 0 implicit integer, 1 continuous)
  Constraints      : 1 initial, 1 maximal
  Objective        : minimize, 1 non-zeros (abs.min = 1, abs.max = 1)
Presolved Problem  :
  Problem name     : t_bbbenchmark/g05_100.6.cut
  Variables        : 1869 (100 binary, 0 integer, 1754 implicit integer, 15 continuous)
  Constraints      : 1797 initial, 10587 maximal
  Objective        : minimize, 1 non-zeros (abs.min = 1, abs.max = 1)
  Nonzeros         : 8643 constraint, 202 clique table
Presolvers         :   ExecTime  SetupTime  Calls  FixedVars   AggrVars   ChgTypes  ChgBounds   AddHoles    DelCons    AddCons   ChgSides   ChgCoefs
  boundshift       :       0.00       0.00      0          0          0          0          0          0          0          0          0          0
  convertinttobin  :       0.00       0.00      0          0          0          0          0          0          0          0          0          0
  domcol           :       0.00       0.00      1          0          0          0          0          0          0          0          0          0
  dualagg          :       0.00       0.00      0          0          0          0          0          0          0          0          0          0
  dualcomp         :       0.00       0.00      1          0          0          0          0          0          0          0          0          0
  dualinfer        :       0.00       0.00      0          0          0          0          0          0          0          0          0          0
  dualsparsify     :       0.00       0.00      1          0          0          0          0          0          0          0          0          0
  gateextraction   :       0.00       0.00      0          0          0          0          0          0          0          0          0          0
  implics          :       0.00       0.00      2          0          0          0          0          0          0          0          0          0
  inttobinary      :       0.00       0.00      0          0          0          0          0          0          0          0          0          0
  qpkktref         :       0.00       0.00      0          0          0          0          0          0          0          0          0          0
  redvub           :       0.00       0.00      0          0          0          0          0          0          0          0          0          0
  sparsify         :       0.00       0.00      1          0          0          0          0          0          0          0          0          0
  stuffing         :       0.00       0.00      0          0          0          0          0          0          0          0          0          0
  trivial          :       0.00       0.00      4          0          0          0          0          0          0          0          0          0
  tworowbnd        :       0.00       0.00      0          0          0          0          0          0          0          0          0          0
  dualfix          :       0.00       0.00      4          0          0          0          0          0          0          0          0          0
  genvbounds       :       0.00       0.00      0          0          0          0          0          0          0          0          0          0
  probing          :       0.33       0.00      1          0          0          0          0          0          0          0          0          0
  pseudoobj        :       0.00       0.00      1          0          0          0          1          0          0          0          0          0
  symmetry         :       0.00       0.00      0          0          0          0          0          0          0          0          0          0
  vbounds          :       0.00       0.00      1          0          0          0          0          0          0          0          0          0
  varbound         :       0.00       0.00      2          0          0          0          0          0          0          0          0          0
  and              :       0.00       0.00      2          0          0          0          0          0          0          0          0          0
  linear           :       0.01       0.00      2          0          0          0          0          0          0          0          0          0
  logicor          :       0.00       0.00      0          0          0          0          0          0          0          0          0          0
  bounddisjunction :       0.00       0.00      0          0          0          0          0          0          0          0          0          0
  nonlinear        :       0.10       0.02      5          0          0          0          1          0          0       1796          0          0
  benders          :       0.00       0.00      0          0          0          0          0          0          0          0          0          0
  components       :       0.00       0.00      1          0          0          0          0          0          0          0          0          0
  root node        :          -          -      -          0          -          -         14          -          -          -          -          -
Constraints        :     Number  MaxNumber  #Separate #Propagate    #EnfoLP    #EnfoRelax  #EnfoPS    #Check   #ResProp    Cutoffs    DomReds       Cuts    Applied      Conss   Children
  benderslp        :          0          0          0          0      70692          0          0       7425          0          0          0          0          0          0          0
  integral         :          0          0          0          0      70692          0          0       7425          0          0       1089          0          0        544     140486
  varbound         :         14         14         55     455880          0          0          0         78          0          0      22592          0          0          0          0
  and              :       1754       1754      85676     540048         10          0          0         78     366341          2    1376644       6863       6636          0          0
  linear           :         29+        43         55     540089         10          0          0         76       1847         10     253522          0          0          0          0
  logicor          :          0+      7037          0     102709          0          0          0          0         79        349         42          0          0          0          0
  bounddisjunction :          0+      2158          0      58070          0          0          0          0          6         66          0          0          0          0          0
  benders          :          0          0          0          0         10          0          0         39          0          0          0          0          0          0          0
  countsols        :          0          0          0          0         10          0          0         39          0          0          0          0          0          0          0
  components       :          0          0          0          0          0          0          0          0          0          0          0          0          0          0          0
Constraint Timings :  TotalTime  SetupTime   Separate  Propagate     EnfoLP     EnfoPS     EnfoRelax   Check    ResProp    SB-Prop
  benderslp        :       0.11       0.00       0.00       0.00       0.11       0.00       0.00       0.00       0.00       0.00
  integral         :      58.67       0.00       0.00       0.00      58.65       0.00       0.00       0.02       0.00       0.00
  varbound         :       0.40       0.00       0.01       0.38       0.00       0.00       0.00       0.00       0.00       0.01
  and              :      98.88       0.00      65.83      31.98       0.00       0.00       0.00       0.02       0.31       0.74
  linear           :       3.66       0.00       0.05       3.55       0.00       0.00       0.00       0.00       0.01       0.05
  logicor          :       8.35       0.00       0.00       8.32       0.00       0.00       0.00       0.00       0.00       0.03
  bounddisjunction :       3.62       0.00       0.00       3.61       0.00       0.00       0.00       0.00       0.00       0.01
  benders          :       0.00       0.00       0.00       0.00       0.00       0.00       0.00       0.00       0.00       0.00
  countsols        :       0.00       0.00       0.00       0.00       0.00       0.00       0.00       0.00       0.00       0.00
  components       :       0.16       0.00       0.00       0.16       0.00       0.00       0.00       0.00       0.00       0.00
Propagators        : #Propagate   #ResProp    Cutoffs    DomReds
  dualfix          :          4          0          0          0
  genvbounds       :          0          0          0          0
  nlobbt           :          0          0          0          0
  obbt             :          0          0          0          0
  probing          :          0          0          0          0
  pseudoobj        :     298238          0          0         17
  redcost          :     168407          0          0      63581
  rootredcost      :         25          0          0          0
  symmetry         :          0          0          0          0
  vbounds          :      67245          0          0          0
Propagator Timings :  TotalTime  SetupTime   Presolve  Propagate    ResProp    SB-Prop
  dualfix          :       0.01       0.00       0.00       0.01       0.00       0.00
  genvbounds       :       0.29       0.00       0.00       0.28       0.00       0.01
  nlobbt           :       0.00       0.00       0.00       0.00       0.00       0.00
  obbt             :       0.00       0.00       0.00       0.00       0.00       0.00
  probing          :       0.33       0.00       0.33       0.00       0.00       0.00
  pseudoobj        :       0.58       0.00       0.00       0.58       0.00       0.00
  redcost          :      14.81       0.00       0.00      14.81       0.00       0.00
  rootredcost      :       0.63       0.00       0.00       0.63       0.00       0.00
  symmetry         :       0.28       0.00       0.00       0.28       0.00       0.00
  vbounds          :       0.48       0.00       0.00       0.47       0.00       0.01
Conflict Analysis  :       Time      Calls    Success    DomReds  Conflicts   Literals    Reconvs ReconvLits   Dualrays   Nonzeros   LP Iters   (pool size: [10000,10000])
  propagation      :       0.00        418        325          -        475       70.0          0        0.0          -          -          -
  infeasible LP    :       0.12         91         91          -       3528      134.4          0        0.0        116      190.0          0
  bound exceed. LP :      18.45       5083       4472          -     106760      107.5          1       57.0          0        0.0      40744
  strong branching :       0.00          0          0          -          0        0.0          0        0.0          -          -          0
  pseudo solution  :       0.00          0          0          -          0        0.0          0        0.0          -          -          -
  applied globally :       0.61          -          -          0      24631      114.2          -          -        116          -          -
  applied locally  :          -          -          -          0          0        0.0          -          -          0          -          -
Separators         :   ExecTime  SetupTime      Calls  RootCalls    Cutoffs    DomReds  FoundCuts ViaPoolAdd  DirectAdd    Applied ViaPoolApp  DirectApp      Conss
  cut pool         :       8.22          -      21804         79          -          -      38172    2078238          -          -          -          -          -    (maximal pool size:       3922)
  aggregation      :      14.28       0.00       5208         55          0          0        102        319          0         64         64          0          0
  > cmir           :          -          -          -          -          -          -          -        319          0         64         64          0          -
  > flowcover      :          -          -          -          -          -          -          -          0          0          0          0          0          -
  > knapsackcover  :          -          -          -          -          -          -          -          0          0          0          0          0          -
  cgmip            :       0.00       0.00          0          0          0          0          0          0          0          0          0          0          0
  clique           :       0.00       0.00         55         55          0          0          0          0          0          0          0          0          0
  closecuts        :       0.00       0.00          0          0          0          0          0          0          0          0          0          0          0
  convexproj       :       0.00       0.00          0          0          0          0          0          0          0          0          0          0          0
  disjunctive      :       0.00       0.00          0          0          0          0          0          0          0          0          0          0          0
  eccuts           :       0.00       0.00          0          0          0          0          0          0          0          0          0          0          0
  gauge            :       0.00       0.00          0          0          0          0          0          0          0          0          0          0          0
  gomory           :       0.00       0.00          0          0          0          0          0          0          0          0          0          0          0
  > gomorymi       :          -          -          -          -          -          -          -          0          0          0          0          0          -
  > strongcg       :          -          -          -          -          -          -          -          0          0          0          0          0          -
  impliedbounds    :       0.49       0.00       5208         55          0          0         23          0          0          0          0          0          0
  interlattice     :       0.24       0.00         30         30          0          0         30          0         30         29          0         29          0
  interminor       :       0.00       0.00          0          0          0          0          0          0          0          0          0          0          0
  intersub         :       0.00       0.00          0          0          0          0          0          0          0          0          0          0          0
  intobj           :       0.00       0.00          0          0          0          0          0          0          0          0          0          0          0
  mcf              :       0.01       0.00          1          1          0          0          0          0          0          0          0          0          0
  minor            :       0.00       0.00          0          0          0          0          0          0          0          0          0          0          0
  mixing           :       0.05       0.00       5208         55          0          0          0          0          0          0          0          0          0
  oddcycle         :       0.00       0.00          0          0          0          0          0          0          0          0          0          0          0
  rapidlearning    :       0.00       0.00          0          0          0          0          0          0          0          0          0          0          0
  rlt              :       0.00       0.00         10         10          0          0          0          0          0          0          0          0          0
  zerohalf         :      52.08       0.00       4599         20          0          0      38047    2077919          0     174544     174544          0          0
Cutselectors       :   ExecTime  SetupTime      Calls  RootCalls   Selected     Forced   Filtered  RootSelec   RootForc   RootFilt 
  hybrid           :       2.60       0.00      18216         53     181273          0    1903858        217          0         13
Pricers            :   ExecTime  SetupTime      Calls       Vars
  problem variables:       0.00          -          0          0
Branching Rules    :   ExecTime  SetupTime   BranchLP  BranchExt   BranchPS    Cutoffs    DomReds       Cuts      Conss   Children
  allfullstrong    :       0.00       0.00          0          0          0          0          0          0          0          0
  cloud            :       0.00       0.00          0          0          0          0          0          0          0          0
  distribution     :       0.00       0.00          0          0          0          0          0          0          0          0
  fullstrong       :       0.00       0.00          0          0          0          0          0          0          0          0
  inference        :       0.00       0.00          0          0          0          0          0          0          0          0
  leastinf         :       0.00       0.00          0          0          0          0          0          0          0          0
  lookahead        :       0.00       0.00          0          0          0          0          0          0          0          0
  mostinf          :       0.00       0.00          0          0          0          0          0          0          0          0
  multaggr         :       0.00       0.00          0          0          0          0          0          0          0          0
  nodereopt        :       0.00       0.00          0          0          0          0          0          0          0          0
  pscost           :       0.00       0.00          0          0          0          0          0          0          0          0
  random           :       0.00       0.00          0          0          0          0          0          0          0          0
  relpscost        :      58.36       0.00      70682          0          0          0       1089          0        544     140486
  vanillafullstrong:       0.00       0.00          0          0          0          0          0          0          0          0
Primal Heuristics  :   ExecTime  SetupTime      Calls      Found       Best
  LP solutions     :       0.09          -          -         10         10
  relax solutions  :       0.00          -          -          0          0
  pseudo solutions :       0.00          -          -          0          0
  strong branching :       0.04          -          -          1          1
  actconsdiving    :       0.00       0.00          0          0          0
  adaptivediving   :       4.18       0.00         29          0          0
  alns             :       4.18       0.00         24          8          8
  bound            :       0.00       0.00          0          0          0
  clique           :       0.01       0.00          1          0          0
  coefdiving       :       0.00       0.00          0          0          0
  completesol      :       0.00       0.00          0          0          0
  conflictdiving   :      87.94       0.00        605          0          0
  crossover        :       0.55       0.00          4          1          1
  dins             :       0.00       0.00          0          0          0
  distributiondivin:      81.06       0.00        308          0          0
  dps              :       0.00       0.00          0          0          0
  dualval          :       0.00       0.00          0          0          0
  farkasdiving     :       0.00       0.00          0          0          0
  feaspump         :       0.31       0.00          1          1          1
  fixandinfer      :       0.00       0.00          0          0          0
  fracdiving       :      51.18       0.00        381          0          0
  gins             :       0.13       0.00          0          0          0
  guideddiving     :      51.42       0.00        381          2          2
  indicator        :       0.10       0.00          0          0          0
  indicatordiving  :       0.00       0.00          0          0          0
  intdiving        :       0.00       0.00          0          0          0
  intshifting      :       0.65       0.00         68          0          0
  linesearchdiving :      52.82       0.00        380          0          0
  localbranching   :       0.00       0.00          0          0          0
  locks            :       0.02       0.00          1          0          0
  lpface           :       0.10       0.00          0          0          0
  mpec             :     146.13       0.00         11          3          3
  multistart       :       0.00       0.00          0          0          0
  mutation         :       0.00       0.00          0          0          0
  nlpdiving        :      20.19       0.00          2          0          0
  objpscostdiving  :      90.27       0.00         96         14          2
  octane           :       0.00       0.00          0          0          0
  ofins            :       0.09       0.00          0          0          0
  oneopt           :       0.12       0.00         29          0          0
  padm             :       0.00       0.00          0          0          0
  proximity        :       0.00       0.00          0          0          0
  pscostdiving     :      60.30       0.00        352          1          1
  randrounding     :       0.58       0.00       7382          0          0
  rens             :       0.00       0.00          0          0          0
  reoptsols        :       0.00       0.00          0          0          0
  repair           :       0.00       0.00          0          0          0
  rins             :       5.01       0.00         19          0          0
  rootsoldiving    :      39.34       0.00         31          0          0
  rounding         :       1.76       0.00       4180          0          0
  shiftandpropagate:       0.00       0.00          0          0          0
  shifting         :      47.80       0.00       8647          2          2
  simplerounding   :       0.12       0.00          0          0          0
  subnlp           :     143.89       0.00          0          0          0
  trivial          :       0.01       0.00          2          2          2
  trivialnegation  :       0.00       0.00          0          0          0
  trustregion      :       0.00       0.00          0          0          0
  trysol           :       0.11       0.00          0          0          0
  twoopt           :       0.00       0.00          0          0          0
  undercover       :       2.28       0.00          1          1          1
  vbounds          :       0.00       0.00          0          0          0
  veclendiving     :      48.91       0.00        380          0          0
  zeroobj          :       0.00       0.00          0          0          0
  zirounding       :       0.51       0.00       1000          0          0
  other solutions  :          -          -          -          0          -
Diving (single)    :      Calls      Nodes   LP Iters Backtracks  Conflicts   MinDepth   MaxDepth   AvgDepth  RoundSols  NLeafSols  MinSolDpt  MaxSolDpt  AvgSolDpt
  actconsdiving    :          0          -          -          -          -          -          -          -          -          -          -          -          -
  coefdiving       :          0          -          -          -          -          -          -          -          -          -          -          -          -
  conflictdiving   :        605      29663     831162        568      35598         55         87       69.2          0          -          -          -          -
  distributiondivin:        308      12276     569231        350       5896         51         69       58.8          0          -          -          -          -
  farkasdiving     :          0          -          -          -          -          -          -          -          -          -          -          -          -
  fracdiving       :        381      38741     457530        122       1994         60        663      122.2          0          -          -          -          -
  guideddiving     :        381      32166     487515        235       7770         57        308      105.5          0          2        124        133      128.5
  indicatordiving  :          0          -          -          -          -          -          -          -          -          -          -          -          -
  linesearchdiving :        380      16568     513486        309      20694         48         91       63.8          0          -          -          -          -
  pscostdiving     :        352      15688     581392        355      10687         55         74       64.1          0          1         74         74       74.0
  veclendiving     :        380      16301     472848        304      24448         53         85       63.7          0          -          -          -          -
Diving (adaptive)  :      Calls      Nodes   LP Iters Backtracks  Conflicts   MinDepth   MaxDepth   AvgDepth  RoundSols  NLeafSols  MinSolDpt  MaxSolDpt  AvgSolDpt
  actconsdiving    :          4        168       5590          4         58         58         61       60.0          0          -          -          -          -
  coefdiving       :         12        554      14773          6        699         57         78       64.8          0          -          -          -          -
  conflictdiving   :          0          -          -          -          -          -          -          -          -          -          -          -          -
  distributiondivin:          0          -          -          -          -          -          -          -          -          -          -          -          -
  farkasdiving     :          0          -          -          -          -          -          -          -          -          -          -          -          -
  fracdiving       :          0          -          -          -          -          -          -          -          -          -          -          -          -
  guideddiving     :          1         96       1020          0          0        115        115      115.0          0          -          -          -          -
  indicatordiving  :          0          -          -          -          -          -          -          -          -          -          -          -          -
  linesearchdiving :          7        326      10138          6        376         52         76       63.6          0          -          -          -          -
  pscostdiving     :          2         90       3146          2         77         63         64       63.5          0          -          -          -          -
  veclendiving     :          3        122       3491          3        214         54         71       62.7          0          -          -          -          -
Neighborhoods      :      Calls  SetupTime  SolveTime SolveNodes       Sols       Best       Exp3  EpsGreedy        UCB TgtFixRate  Opt  Inf Node Stal  Sol  Usr Othr Actv
  rens             :          3       0.32       0.52         58          0          0    0.00000   -1.00000    0.49425      0.437    0    3    0    0    0    0    0    1
  rins             :          2       0.19       0.10         83          0          0    0.00000   -1.00000    0.46816      0.850    0    1    0    1    0    0    0    1
  mutation         :          2       0.17       0.08         71          0          0    0.00000   -1.00000    0.47780      0.850    0    1    0    1    0    0    0    1
  localbranching   :          9       0.59       0.60        567          7          7    0.00000   -1.00000    0.53939      0.856    0    0    0    7    2    0    0    1
  crossover        :          2       0.21       0.09         90          0          0    0.00000   -1.00000    0.48526      0.550    0    2    0    0    0    0    0    1
  proximity        :          2       0.20       0.17         96          0          0    0.00000   -1.00000    0.46875      0.850    0    1    0    1    0    0    0    1
  zeroobjective    :          2       0.06       0.39        835          1          1    0.00000   -1.00000    0.49655      0.850    1    0    0    1    0    0    0    1
  dins             :          2       0.20       0.07         93          0          0    0.00000   -1.00000    0.46732      0.850    0    1    0    1    0    0    0    1
  trustregion      :          0       0.00       0.00          0          0          0    0.00000   -1.00000    1.00000      0.900    0    0    0    0    0    0    0    0
Expressions        :   #IntEval  IntEvalTi   #RevProp  RevPropTi    DomReds    Cutoffs  #Estimate  EstimTime  Branching  #Simplify SimplifyTi Simplified
  pow              :          0       0.00          0       0.00          0          0          0       0.00          0          0       0.00          0
  prod             :       9900       0.00          0       0.00          0          0          0       0.00          0       6704       0.00          0
  sum              :          8       0.00          2       0.00          0          0          0       0.00          0          3       0.01          2
  var              :       6416       0.00          0       0.00          0          0          0       0.00          0      15479       0.00          0
  varidx           :          0       0.00          0       0.00          0          0          0       0.00          0          0       0.00          0
LP                 :       Time      Calls Iterations  Iter/call   Iter/sec  Time-0-It Calls-0-It    ItLimit
  primal LP        :     101.86      10158          0       0.00       0.00     101.79      10158
  dual LP          :    2140.66     134969   10982581      87.06    5130.46       4.50       8826
  lex dual LP      :       0.00          0          0       0.00          -
  barrier LP       :       0.00          0          0       0.00          -       0.00          0
  resolve instable :       0.00          0          0       0.00          -
  diving/probing LP:     480.86      17512    4636928     264.79    9642.99
  strong branching :      24.39       1957     214024     109.36    8775.07          -          -        104
    (at root node) :          -         20       3464     173.20          -
  conflict analysis:       6.52       4239      40744       9.61    6249.08
NLP relaxation     :
  solve time       :      19.51 (6 calls)
  convexity        :  nonconvex (43 linear rows, 0 convex ineq., 0 nonconvex ineq., 1754 nonlinear eq. or two-sided ineq.)
NLP Solvers        :  #Problems  ProblemTi    #Solves  SolveTime      #Iter  Time/Iter      #Okay #TimeLimit #IterLimit #LObjLimit #Interrupt  #NumError #EvalError  #OutOfMem #LicenseEr #OtherTerm   #GlobOpt    #LocOpt  #Feasible #LocInfeas #GlobInfea #Unbounded   #Unknown
  ipopt            :         12       5.80         36     301.55       1835       0.16         34          0          2          0          0          0          0          0          0          0          0         23          0         10          0          0          3
B&B Tree           :
  number of runs   :          1
  nodes            :     107513 (70243 internal, 37270 leaves)
  feasible leaves  :         10
  infeas. leaves   :         10
  objective leaves :      37249
  nodes (total)    :     107513 (70243 internal, 37270 leaves)
  nodes left       :      32660
  max depth        :         72
  max depth (total):         72
  backtracks       :      21099 (19.6%)
  early backtracks :          0 (0.0%)
  nodes exc. ref.  :          0 (0.0%)
  delayed cutoffs  :          5
  repropagations   :         40 (111 domain reductions, 0 cutoffs)
  avg switch length:       5.20
  switching time   :     130.95
Estim. Tree Size   :     215654
Estimation Tree    : 140487 nodes (107827 visited, 70243 internal, 37584 leaves, 32660 open), weight: 0.0000 completed 0.1135
Estimations        :      estim      value      trend resolution     smooth
  wbe              : 349613881824484          -          -          -          -
  tree-profile     :         -1          -          -          -          -
  gap              :    2704982    0.68722    0.00002         64    2733911
  tree-weight      :     215654    0.00000    0.00000         64     215498
  leaf-frequency   :     567123    0.34855    0.00004         64     559088
  ssg              :   21743881    0.82080   -0.00000         64   21775470
  open-nodes       :     215654 32660.00000    9.35339         64     215498
Root Node          :
  First LP value   : -1.00000000000000e+00
  First LP Iters   :       1597 (10646.67 Iter/sec)
  First LP Time    :       0.15
  Final Dual Bound : -9.55505050505051e-01
  Final Root Iters :       2655
  Root LP Estimate : -3.82866476134700e-01
Solution           :
  Solutions found  :         46 (34 improvements)
  First Solution   : +1.00000000000000e+05   (in run 1, after 0 nodes, 0.04 seconds, depth 0, found by <trivial>)
  Gap First Sol.   :   infinite
  Gap Last Sol.    :      45.57 %
  Primal Bound     : -5.68484848484847e-01   (in run 1, after 105484 nodes, 3487.52 seconds, depth 52, found by <relaxation>)
  Dual Bound       : -8.27223342177195e-01
  Gap              :      45.51 %
Integrals          :      Total       Avg%
  primal-dual      :  122293.29      33.97
  primal-ref       :          -          - (not evaluated)
  dual-ref         :          -          - (not evaluated)
